COLUMNS

passenger_count
pickup_ID
dropoff_ID
request_time_sec
pickup_district
dropoff_district
LDuals
IDuals
vehicle_ID
pick_position
drop_position

REQUESTS_INFO
1      537       747       28870     189       290       104       104       3         1         3         
3      794       535       28828     290       189       217       217       94        1         2         
3      992       599       28832     290       280       276       276       121       1         3         
1      335       213       28886     119       266       145       145       158       1         2         
3      951       602       28742     290       189       368       368       164       1         2         
1      410       622       28884     52        280       124       124       200       1         2         
1      873       673       28833     291       189       153       153       213       1         2         
1      219       648       28886     87        189       80        80        214       1         2         
1      951       119       28678     290       286       396       396       251       1         4         
1      295       838       28855     87        290       131       131       255       1         3         
1      644       526       28836     131       52        147       147       302       1         2         
2      1053      1025      28680     84        291       421       421       308       1         2         
1      905       698       28874     290       189       173       173       337       1         3         
1      927       116       28878     290       9         193       193       337       2         5         
2      923       838       28865     290       290       199       199       389       1         3         
1      256       439       28886     87        189       145       145       391       1         3         
1      992       1200      28881     290       84        204       204       398       1         3         
3      971       580       28785     290       189       307       307       432       1         2         
3      794       535       28828     290       189       217       217       487       1         2         
1      441       604       28861     168       189       136       136       492       1         2         
2      937       531       28864     291       189       158       158       534       1         3         
3      937       531       28864     291       189       164       164       546       1         2         
1      873       666       28845     291       131       173       173       619       1         2         
1      286       286       28871     299       299       135       135       646       1         2         
1      772       555       28821     290       199       178       178       747       1         2         
2      909       439       28788     290       189       312       312       793       1         3         
1      410       720       28888     52        290       120       120       817       1         3         
1      883       674       28739     290       189       307       307       835       1         2         
3      817       1360      28834     290       129       217       217       843       1         3         
1      1162      1116      28784     84        84        228       228       855       1         4         
2      234       486       28804     87        199       168       168       906       1         4         
2      946       859       28702     290       290       368       368       916       1         2         
1      989       233       28856     50        206       216       216       927       1         4         
1      862       81        28856     290       98        216       216       953       1         3         
1      793       625       28881     290       189       161       161       964       1         2         
1      1046      740       28817     291       50        218       218       999       1         3         
1      771       64        28874     290       98        141       141       1008      1         3         
3      842       602       28665     290       189       419       419       1047      1         3         
1      842       652       28882     290       189       202       202       1047      2         4         
1      817       836       28876     290       290       175       175       1050      1         3         
1      1048      457       28809     291       52        194       194       1069      1         4         
2      904       698       28832     290       189       212       212       1077      1         3         
1      904       1002      28790     290       291       258       258       1077      2         4         
2      992       599       28832     290       280       270       270       1099      1         3         
3      813       626       28876     290       189       148       148       1100      1         2         
1      1070      603       28762     50        189       303       303       1109      1         4         
2      1068      960       28827     291       291       281       281       1109      2         3         
1      865       397       28777     290       168       293       293       1111      1         3         
1      816       929       28853     290       290       188       188       1162      1         2         
3      909       559       28823     290       189       277       277       1177      1         3         
3      1000      652       28830     291       189       214       214       1186      1         2         
3      863       459       28729     290       189       357       357       1190      1         2         
2      909       675       28848     290       189       252       252       1202      1         3         
3      633       413       28874     189       52        145       145       1206      1         3         
1      902       438       28861     50        100       191       191       1237      1         2         
1      703       697       28831     290       189       156       156       1253      1         3         
1      887       694       28821     290       189       266       266       1261      1         3         
1      949       1107      28685     290       291       398       398       1265      1         3         
1      817       722       28754     290       290       297       297       1266      1         4         
1      939       858       28779     291       290       253       253       1274      1         2         
2      1000      652       28830     291       189       183       183       1294      1         4         
3      1168      982       28861     291       291       201       201       1302      1         2         
1      750       482       28748     999       189       293       293       1315      1         2         
3      1087      973       28838     291       84        245       245       1321      1         2         
1      850       602       28867     291       189       143       143       1336      1         2         
3      1175      1218      28858     129       84        180       180       1351      1         2         
2      1284      1218      28786     129       84        234       234       1365      1         3         
1      861       625       28847     290       189       208       208       1374      1         2         
1      1227      950       28821     192       290       205       205       1378      1         3         
1      393       117       28888     52        286       72        72        1389      1         2         
2      908       925       28853     290       290       263       263       1399      1         2         
2      1087      973       28838     291       84        245       245       1414      1         3         
2      1047      858       28876     291       290       205       205       1414      2         4         
1      1109      874       28858     291       291       258       258       1432      1         3         
1      306       190       28887     299       286       128       128       1443      1         2         
3      1069      1169      28624     291       291       491       491       1458      1         3         
1      344       347       28883     299       299       169       169       1477      1         2         
1      946       737       28830     290       189       231       231       1498      1         3         
1      508       505       28890     199       52        0         0         0         0         0         
1      374       171       28890     119       286       0         0         0         0         0         
1      1128      937       28890     291       291       0         0         0         0         0         
1      771       723       28890     290       290       0         0         0         0         0         
1      48        19        28890     98        98        0         0         0         0         0         
1      828       928       28890     291       290       0         0         0         0         0         
1      337       581       28891     277       189       0         0         0         0         0         
1      607       412       28891     189       52        0         0         0         0         0         
1      1053      968       28891     84        290       0         0         0         0         0         
1      949       925       28891     290       290       0         0         0         0         0         
2      1001      737       28891     291       189       0         0         0         0         0         
1      816       117       28891     290       286       0         0         0         0         0         
2      860       760       28891     290       291       0         0         0         0         0         
1      990       740       28892     290       50        0         0         0         0         0         
2      433       805       28893     52        291       0         0         0         0         0         
1      1244      838       28893     192       290       0         0         0         0         0         
1      527       553       28893     52        189       0         0         0         0         0         
1      549       644       28893     52        131       0         0         0         0         0         
1      118       189       28893     286       286       0         0         0         0         0         
2      415       726       28893     100       290       0         0         0         0         0         
3      415       726       28893     100       290       0         0         0         0         0         
4      412       373       28894     52        119       0         0         0         0         0         
1      850       718       28894     291       189       0         0         0         0         0         
1      43        22        28895     9         98        0         0         0         0         0         
4      19        19        28895     98        98        0         0         0         0         0         
1      438       742       28895     100       290       0         0         0         0         0         
1      874       782       28896     291       291       0         0         0         0         0         
1      888       583       28896     290       189       0         0         0         0         0         
1      662       268       28896     131       299       0         0         0         0         0         
3      1187      479       28896     291       52        0         0         0         0         0         
3      1187      479       28896     291       52        0         0         0         0         0         
3      466       675       28896     199       189       0         0         0         0         0         
3      466       675       28896     199       189       0         0         0         0         0         
1      597       720       28896     131       290       0         0         0         0         0         
1      554       530       28897     189       189       0         0         0         0         0         
1      270       116       28897     127       9         0         0         0         0         0         
1      229       217       28897     266       87        0         0         0         0         0         
1      874       649       28897     291       189       0         0         0         0         0         
1      64        526       28897     98        52        0         0         0         0         0         
1      908       1218      28898     290       84        0         0         0         0         0         
1      743       698       28898     290       189       0         0         0         0         0         
1      208       135       28898     286       286       0         0         0         0         0         
2      837       232       28898     290       266       0         0         0         0         0         
1      486       603       28899     199       189       0         0         0         0         0         
1      504       616       28899     52        131       0         0         0         0         0         
1      871       923       28899     291       290       0         0         0         0         0         
1      699       583       28900     290       189       0         0         0         0         0         
3      155       161       28900     286       178       0         0         0         0         0         
1      723       723       28900     290       290       0         0         0         0         0         
1      780       189       28900     291       286       0         0         0         0         0         
3      155       161       28900     286       178       0         0         0         0         0         
2      905       116       28901     290       9         0         0         0         0         0         
3      847       738       28901     291       189       0         0         0         0         0         
1      509       439       28901     199       189       0         0         0         0         0         
2      723       551       28901     290       189       0         0         0         0         0         
1      737       1208      28901     189       192       0         0         0         0         0         
1      532       484       28901     199       189       0         0         0         0         0         
1      392       552       28901     52        189       0         0         0         0         0         
1      838       628       28902     290       189       0         0         0         0         0         
1      276       271       28902     87        127       0         0         0         0         0         
1      504       393       28902     52        52        0         0         0         0         0         
2      1218      794       28903     84        290       0         0         0         0         0         
1      415       531       28903     100       189       0         0         0         0         0         
1      756       599       28903     131       280       0         0         0         0         0         
4      500       555       28904     52        199       0         0         0         0         0         
1      390       413       28904     52        52        0         0         0         0         0         
2      631       676       28904     189       189       0         0         0         0         0         
1      883       652       28904     290       189       0         0         0         0         0         
1      972       648       28904     290       189       0         0         0         0         0         
3      1117      994       28905     84        84        0         0         0         0         0         
3      1117      994       28905     84        84        0         0         0         0         0         
1      549       689       28905     52        131       0         0         0         0         0         
1      984       622       28905     291       280       0         0         0         0         0         
1      968       788       28905     290       290       0         0         0         0         0         
1      772       837       28905     290       290       0         0         0         0         0         
2      527       332       28905     52        87        0         0         0         0         0         
1      348       555       28906     299       199       0         0         0         0         0         
1      603       691       28906     189       131       0         0         0         0         0         
1      691       695       28906     131       189       0         0         0         0         0         
1      421       581       28906     168       189       0         0         0         0         0         
1      721       1181      28906     290       84        0         0         0         0         0         
2      783       651       28907     50        189       0         0         0         0         0         
1      669       527       28907     280       52        0         0         0         0         0         
3      783       651       28907     50        189       0         0         0         0         0         
3      158       1519      28907     174       296       0         0         0         0         0         
3      158       1519      28907     174       296       0         0         0         0         0         
1      377       484       28907     168       189       0         0         0         0         0         
1      1066      892       28907     291       291       0         0         0         0         0         
1      619       444       28907     131       168       0         0         0         0         0         
1      607       603       28907     189       189       0         0         0         0         0         
1      532       417       28908     199       100       0         0         0         0         0         
1      829       650       28908     50        189       0         0         0         0         0         
3      549       615       28908     52        131       0         0         0         0         0         
2      549       615       28908     52        131       0         0         0         0         0         
1      498       719       28908     52        189       0         0         0         0         0         
1      582       1530      28909     189       296       0         0         0         0         0         
2      355       575       28909     119       189       0         0         0         0         0         
1      882       766       28909     290       290       0         0         0         0         0         
2      991       649       28909     290       189       0         0         0         0         0         
1      488       676       28909     199       189       0         0         0         0         0         
3      437       544       28910     100       52        0         0         0         0         0         
3      437       544       28910     100       52        0         0         0         0         0         
3      927       770       28910     290       290       0         0         0         0         0         
1      443       816       28910     168       290       0         0         0         0         0         
2      927       770       28910     290       290       0         0         0         0         0         
1      794       605       28910     290       189       0         0         0         0         0         
3      663       757       28911     131       131       0         0         0         0         0         
2      663       757       28911     131       131       0         0         0         0         0         
1      534       685       28911     199       999       0         0         0         0         0         
1      1022      1328      28912     291       129       0         0         0         0         0         
2      415       209       28912     100       266       0         0         0         0         0         
1      1098      1135      28912     84        50        0         0         0         0         0         
1      419       604       28912     168       189       0         0         0         0         0         
1      925       626       28912     290       189       0         0         0         0         0         
1      461       579       28913     189       189       0         0         0         0         0         
2      295       544       28913     87        52        0         0         0         0         0         
3      295       544       28913     87        52        0         0         0         0         0         
1      487       157       28914     199       54        0         0         0         0         0         
1      413       600       28914     52        280       0         0         0         0         0         
1      175       603       28914     266       189       0         0         0         0         0         
1      395       604       28914     100       189       0         0         0         0         0         
1      909       772       28914     290       290       0         0         0         0         0         
1      768       695       28914     290       189       0         0         0         0         0         
1      842       650       28914     290       189       0         0         0         0         0         
1      304       579       28915     299       189       0         0         0         0         0         
1      829       771       28915     50        290       0         0         0         0         0         
1      690       574       28915     131       189       0         0         0         0         0         
1      835       897       28915     290       291       0         0         0         0         0         
1      894       1517      28915     291       296       0         0         0         0         0         
4      760       671       28915     291       280       0         0         0         0         0         
3      527       534       28916     52        199       0         0         0         0         0         
3      134       247       28916     9         266       0         0         0         0         0         
1      722       695       28916     290       189       0         0         0         0         0         
1      557       629       28916     189       189       0         0         0         0         0         
2      580       97        28916     189       9         0         0         0         0         0         
1      904       972       28917     290       290       0         0         0         0         0         
1      789       604       28917     290       189       0         0         0         0         0         
2      314       624       28917     119       189       0         0         0         0         0         
1      781       580       28917     291       189       0         0         0         0         0         
1      811       649       28918     290       189       0         0         0         0         0         
2      78        351       28918     9         52        0         0         0         0         0         
3      78        351       28918     9         52        0         0         0         0         0         
1      720       1194      28919     290       129       0         0         0         0         0         
2      781       651       28919     291       189       0         0         0         0         0         
3      781       651       28919     291       189       0         0         0         0         0         
1      621       718       28919     280       189       0         0         0         0         0         
